
Gurobi 8.1.1 (win64, Python) logging started 08/21/20 19:54:42


--------------------------------------------
Warning: your license will expire in 6 days
--------------------------------------------

Academic license - for non-commercial use only
Changed value of parameter lazyConstraints to 1
   Prev: 0  Min: 0  Max: 1  Default: 0
Optimize a model with 20 rows, 190 columns and 380 nonzeros
Variable types: 0 continuous, 190 integer (190 binary)
Coefficient statistics:
  Matrix range     [1e+00, 1e+00]
  Objective range  [2e+00, 1e+02]
  Bounds range     [1e+00, 1e+00]
  RHS range        [2e+00, 2e+00]
Presolve time: 0.00s
Presolved: 20 rows, 190 columns, 380 nonzeros
Variable types: 0 continuous, 190 integer (190 binary)

Root relaxation: objective 4.484281e+02, 31 iterations, 0.00 seconds

    Nodes    |    Current Node    |     Objective Bounds      |     Work
 Expl Unexpl |  Obj  Depth IntInf | Incumbent    BestBd   Gap | It/Node Time

     0     0  448.42814    0    6          -  448.42814      -     -    0s
H    0     0                     738.2816556  448.42814  39.3%     -    0s
*    0     0               0     470.1462943  470.14629  0.00%     -    0s

Cutting planes:
  Gomory: 1
  Zero half: 2
  Lazy constraints: 5

Explored 1 nodes (42 simplex iterations) in 0.03 seconds
Thread count was 8 (of 8 available processors)

Solution count 2: 470.146 738.282 

Optimal solution found (tolerance 1.00e-04)
Best objective 4.701462942872e+02, best bound 4.701462942872e+02, gap 0.0000%
Changed value of parameter lazyConstraints to 1
   Prev: 0  Min: 0  Max: 1  Default: 0
Optimize a model with 20 rows, 190 columns and 380 nonzeros
Variable types: 0 continuous, 190 integer (190 binary)
Coefficient statistics:
  Matrix range     [1e+00, 1e+00]
  Objective range  [2e+00, 1e+02]
  Bounds range     [1e+00, 1e+00]
  RHS range        [2e+00, 2e+00]
Presolve time: 0.00s
Presolved: 20 rows, 190 columns, 380 nonzeros
Variable types: 0 continuous, 190 integer (190 binary)

Root relaxation: objective 4.484281e+02, 31 iterations, 0.00 seconds

    Nodes    |    Current Node    |     Objective Bounds      |     Work
 Expl Unexpl |  Obj  Depth IntInf | Incumbent    BestBd   Gap | It/Node Time

     0     0  448.42814    0    6          -  448.42814      -     -    0s
H    0     0                     738.2816556  448.42814  39.3%     -    0s
*    0     0               0     470.1462943  470.14629  0.00%     -    0s

Cutting planes:
  Gomory: 1
  Zero half: 2
  Lazy constraints: 5

Explored 1 nodes (42 simplex iterations) in 0.03 seconds
Thread count was 8 (of 8 available processors)

Solution count 2: 470.146 738.282 

Optimal solution found (tolerance 1.00e-04)
Best objective 4.701462942872e+02, best bound 4.701462942872e+02, gap 0.0000%
Changed value of parameter lazyConstraints to 1
   Prev: 0  Min: 0  Max: 1  Default: 0
Optimize a model with 100 rows, 4950 columns and 9900 nonzeros
Variable types: 0 continuous, 4950 integer (4950 binary)
Coefficient statistics:
  Matrix range     [1e+00, 1e+00]
  Objective range  [1e+00, 1e+02]
  Bounds range     [1e+00, 1e+00]
  RHS range        [2e+00, 2e+00]
Presolve time: 0.01s
Presolved: 100 rows, 4950 columns, 9900 nonzeros
Variable types: 0 continuous, 4950 integer (4950 binary)

Root relaxation: objective 7.780982e+02, 144 iterations, 0.00 seconds

    Nodes    |    Current Node    |     Objective Bounds      |     Work
 Expl Unexpl |  Obj  Depth IntInf | Incumbent    BestBd   Gap | It/Node Time

     0     0  778.09821    0   22          -  778.09821      -     -    0s
     0     0  789.44882    0   14          -  789.44882      -     -    0s
     0     0  790.55756    0   18          -  790.55756      -     -    0s
     0     0  791.44578    0   20          -  791.44578      -     -    0s
     0     0  791.44578    0   20          -  791.44578      -     -    0s
     0     2  795.09059    0   18          -  795.09059      -     -    0s
* 1086   934             116     888.7649162  800.84134  9.89%   4.5    1s
* 1087   933             117     888.4256874  800.84134  9.86%   4.5    1s
H 1103   626                     856.6079728  800.84134  6.51%   4.6    1s
H 1105   589                     856.4644407  810.63094  5.35%   4.6    2s
H 1108   561                     832.0980677  819.59955  1.50%   4.5    2s
H 1115   537                     831.6215875  822.11559  1.14%   4.8    2s
H 1118   512                     831.0552575  822.94006  0.98%   4.8    2s
H 1123   490                     830.9896202  823.78469  0.87%   4.8    2s
H 1127   467                     827.7584465  823.87555  0.47%   4.8    3s
H 1137   451                     827.1306931  823.89902  0.39%   5.1    3s
H 1137   428                     826.0172898  823.89902  0.26%   5.1    3s
H 1137   406                     825.8514526  823.89902  0.24%   5.1    3s
H 1148   394                     824.7724717  823.98714  0.10%   5.4    3s
H 1148   374                     824.5792817  823.98714  0.07%   5.4    3s
H 1161   364                     824.4134445  824.11751  0.04%   5.6    3s

Cutting planes:
  Gomory: 10
  Clique: 9
  Flow cover: 2
  Zero half: 10

Explored 1166 nodes (6766 simplex iterations) in 3.53 seconds
Thread count was 8 (of 8 available processors)

Solution count 10: 824.413 824.579 824.772 ... 831.622

Optimal solution found (tolerance 1.00e-04)
Best objective 8.244134444902e+02, best bound 8.244134444902e+02, gap 0.0000%
Changed value of parameter lazyConstraints to 1
   Prev: 0  Min: 0  Max: 1  Default: 0
Optimize a model with 1000 rows, 499500 columns and 999000 nonzeros
Variable types: 0 continuous, 499500 integer (499500 binary)
Coefficient statistics:
  Matrix range     [1e+00, 1e+00]
  Objective range  [1e+00, 1e+02]
  Bounds range     [1e+00, 1e+00]
  RHS range        [2e+00, 2e+00]
Presolve time: 1.12s
Presolved: 1000 rows, 499500 columns, 999000 nonzeros
Variable types: 0 continuous, 499500 integer (499500 binary)

Root simplex log...

Iteration    Objective       Primal Inf.    Dual Inf.      Time
       0    0.0000000e+00   2.000000e+03   0.000000e+00      5s

Starting sifting (using dual simplex for sub-problems)...

    Iter     Pivots    Primal Obj      Dual Obj        Time
       0          0     infinity      0.0000000e+00      5s

Sifting complete

    1525    2.1931967e+03   0.000000e+00   0.000000e+00      5s

Root relaxation: objective 2.193197e+03, 1525 iterations, 0.19 seconds

    Nodes    |    Current Node    |     Objective Bounds      |     Work
 Expl Unexpl |  Obj  Depth IntInf | Incumbent    BestBd   Gap | It/Node Time

     0     0 2193.19674    0  138          - 2193.19674      -     -    5s
     0     0 2193.19674    0  138          - 2193.19674      -     -   10s
     0     0 2194.55279    0  140          - 2194.55279      -     -   11s
     0     0 2196.55202    0  134          - 2196.55202      -     -   12s
     0     0 2197.27459    0  140          - 2197.27459      -     -   12s
     0     0 2199.81881    0  135          - 2199.81881      -     -   12s
     0     0 2200.80646    0  149          - 2200.80646      -     -   13s
     0     0 2200.80646    0  147          - 2200.80646      -     -   13s
     0     0 2201.83433    0  169          - 2201.83433      -     -   14s
     0     0 2202.26753    0  198          - 2202.26753      -     -   15s
     0     0 2202.69318    0  204          - 2202.69318      -     -   15s
     0     0 2203.13128    0  181          - 2203.13128      -     -   16s
     0     0 2203.20699    0  181          - 2203.20699      -     -   17s
     0     0 2203.20699    0  178          - 2203.20699      -     -   21s
     0     2 2203.20699    0  168          - 2203.20699      -     -   47s
    31    32 2205.10340    9  150          - 2204.64532      -   4.2   50s
   101   106 2206.83133   27   96          - 2204.64532      -   2.8   55s
   139   132 2207.26311   34   78          - 2204.64532      -   2.7   60s
   213   210 2207.96621   48   57          - 2204.64532      -   2.6   65s
   288   288 2208.70891   62   59          - 2204.64532      -   2.5   70s
   359   360 2209.38689   75   59          - 2204.64532      -   2.4   75s
   423   424 2210.34170   89   55          - 2204.64532      -   2.3   81s
   463   463 2211.55895   97   47          - 2204.64532      -   2.2   85s

Gurobi 8.1.1 (win64, Python) logging started 08/21/20 23:21:18


--------------------------------------------
Warning: your license will expire in 6 days
--------------------------------------------

Academic license - for non-commercial use only
Changed value of parameter lazyConstraints to 1
   Prev: 0  Min: 0  Max: 1  Default: 0
Optimize a model with 100 rows, 4950 columns and 9900 nonzeros
Variable types: 0 continuous, 4950 integer (4950 binary)
Coefficient statistics:
  Matrix range     [1e+00, 1e+00]
  Objective range  [1e+00, 1e+02]
  Bounds range     [1e+00, 1e+00]
  RHS range        [2e+00, 2e+00]
Presolve time: 0.01s
Presolved: 100 rows, 4950 columns, 9900 nonzeros
Variable types: 0 continuous, 4950 integer (4950 binary)

Root relaxation: objective 7.780982e+02, 144 iterations, 0.00 seconds

    Nodes    |    Current Node    |     Objective Bounds      |     Work
 Expl Unexpl |  Obj  Depth IntInf | Incumbent    BestBd   Gap | It/Node Time

     0     0  778.09821    0   22          -  778.09821      -     -    0s
     0     0  789.44882    0   14          -  789.44882      -     -    0s
     0     0  790.55756    0   18          -  790.55756      -     -    0s
     0     0  791.44578    0   20          -  791.44578      -     -    0s
     0     0  791.44578    0   20          -  791.44578      -     -    0s
     0     2  795.09059    0   18          -  795.09059      -     -    0s
* 1086   934             116     888.7649162  800.84134  9.89%   4.5    1s
* 1087   933             117     888.4256874  800.84134  9.86%   4.5    1s
H 1103   626                     856.6079728  800.84134  6.51%   4.6    2s
H 1105   589                     856.4644407  810.63094  5.35%   4.6    2s
H 1108   561                     832.0980677  819.59955  1.50%   4.5    2s
H 1115   537                     831.6215875  822.11559  1.14%   4.8    2s
H 1118   512                     831.0552575  822.94006  0.98%   4.8    3s
H 1123   490                     830.9896202  823.78469  0.87%   4.8    3s
H 1127   467                     827.7584465  823.87555  0.47%   4.8    3s
H 1137   451                     827.1306931  823.89902  0.39%   5.1    3s
H 1137   428                     826.0172898  823.89902  0.26%   5.1    3s
H 1137   406                     825.8514526  823.89902  0.24%   5.1    3s
H 1148   394                     824.7724717  823.98714  0.10%   5.4    3s
H 1148   374                     824.5792817  823.98714  0.07%   5.4    3s
H 1161   364                     824.4134445  824.11751  0.04%   5.6    3s

Cutting planes:
  Gomory: 10
  Clique: 9
  Flow cover: 2
  Zero half: 10

Explored 1166 nodes (6766 simplex iterations) in 3.80 seconds
Thread count was 8 (of 8 available processors)

Solution count 10: 824.413 824.579 824.772 ... 831.622

Optimal solution found (tolerance 1.00e-04)
Best objective 8.244134444902e+02, best bound 8.244134444902e+02, gap 0.0000%
Changed value of parameter lazyConstraints to 1
   Prev: 0  Min: 0  Max: 1  Default: 0
Optimize a model with 100 rows, 4950 columns and 9900 nonzeros
Variable types: 0 continuous, 4950 integer (4950 binary)
Coefficient statistics:
  Matrix range     [1e+00, 1e+00]
  Objective range  [1e+00, 1e+02]
  Bounds range     [1e+00, 1e+00]
  RHS range        [2e+00, 2e+00]
Presolve time: 0.01s
Presolved: 100 rows, 4950 columns, 9900 nonzeros
Variable types: 0 continuous, 4950 integer (4950 binary)

Root relaxation: objective 7.780982e+02, 144 iterations, 0.00 seconds

    Nodes    |    Current Node    |     Objective Bounds      |     Work
 Expl Unexpl |  Obj  Depth IntInf | Incumbent    BestBd   Gap | It/Node Time

     0     0  778.09821    0   22          -  778.09821      -     -    0s
     0     0  789.44882    0   14          -  789.44882      -     -    0s
     0     0  790.55756    0   18          -  790.55756      -     -    0s
     0     0  791.44578    0   20          -  791.44578      -     -    0s
     0     0  791.44578    0   20          -  791.44578      -     -    0s
     0     2  795.09059    0   18          -  795.09059      -     -    0s
* 1086   934             116     888.7649162  800.84134  9.89%   4.5    1s
* 1087   933             117     888.4256874  800.84134  9.86%   4.5    1s
H 1103   626                     856.6079728  800.84134  6.51%   4.6    1s
H 1105   589                     856.4644407  810.63094  5.35%   4.6    1s
H 1108   561                     832.0980677  819.59955  1.50%   4.5    2s
H 1115   537                     831.6215875  822.11559  1.14%   4.8    2s
H 1118   512                     831.0552575  822.94006  0.98%   4.8    2s
H 1123   490                     830.9896202  823.78469  0.87%   4.8    2s
H 1127   467                     827.7584465  823.87555  0.47%   4.8    2s
H 1137   451                     827.1306931  823.89902  0.39%   5.1    2s
H 1137   428                     826.0172898  823.89902  0.26%   5.1    2s
H 1137   406                     825.8514526  823.89902  0.24%   5.1    2s
H 1148   394                     824.7724717  823.98714  0.10%   5.4    3s
H 1148   374                     824.5792817  823.98714  0.07%   5.4    3s
H 1161   364                     824.4134445  824.11751  0.04%   5.6    3s

Cutting planes:
  Gomory: 10
  Clique: 9
  Flow cover: 2
  Zero half: 10

Explored 1166 nodes (6766 simplex iterations) in 3.21 seconds
Thread count was 8 (of 8 available processors)

Solution count 10: 824.413 824.579 824.772 ... 831.622

Optimal solution found (tolerance 1.00e-04)
Best objective 8.244134444902e+02, best bound 8.244134444902e+02, gap 0.0000%
Changed value of parameter lazyConstraints to 1
   Prev: 0  Min: 0  Max: 1  Default: 0
Optimize a model with 100 rows, 4950 columns and 9900 nonzeros
Variable types: 0 continuous, 4950 integer (4950 binary)
Coefficient statistics:
  Matrix range     [1e+00, 1e+00]
  Objective range  [1e+00, 1e+02]
  Bounds range     [1e+00, 1e+00]
  RHS range        [2e+00, 2e+00]
Presolve time: 0.01s
Presolved: 100 rows, 4950 columns, 9900 nonzeros
Variable types: 0 continuous, 4950 integer (4950 binary)

Root relaxation: objective 7.780982e+02, 144 iterations, 0.00 seconds

    Nodes    |    Current Node    |     Objective Bounds      |     Work
 Expl Unexpl |  Obj  Depth IntInf | Incumbent    BestBd   Gap | It/Node Time

     0     0  778.09821    0   22          -  778.09821      -     -    0s
     0     0  789.44882    0   14          -  789.44882      -     -    0s
     0     0  790.55756    0   18          -  790.55756      -     -    0s
     0     0  791.44578    0   20          -  791.44578      -     -    0s
     0     0  791.44578    0   20          -  791.44578      -     -    0s
     0     2  795.09059    0   18          -  795.09059      -     -    0s
* 1086   934             116     888.7649162  800.84134  9.89%   4.5    2s
* 1087   933             117     888.4256874  800.84134  9.86%   4.5    2s
H 1103   626                     856.6079728  800.84134  6.51%   4.6    2s
H 1105   589                     856.4644407  810.63094  5.35%   4.6    2s
H 1108   561                     832.0980677  819.59955  1.50%   4.5    3s
H 1115   537                     831.6215875  822.11559  1.14%   4.8    3s
H 1118   512                     831.0552575  822.94006  0.98%   4.8    3s
H 1123   490                     830.9896202  823.78469  0.87%   4.8    3s
H 1127   467                     827.7584465  823.87555  0.47%   4.8    3s
H 1137   451                     827.1306931  823.89902  0.39%   5.1    4s
H 1137   428                     826.0172898  823.89902  0.26%   5.1    4s
H 1137   406                     825.8514526  823.89902  0.24%   5.1    4s
H 1148   394                     824.7724717  823.98714  0.10%   5.4    4s
H 1148   374                     824.5792817  823.98714  0.07%   5.4    4s
H 1161   364                     824.4134445  824.11751  0.04%   5.6    4s

Cutting planes:
  Gomory: 10
  Clique: 9
  Flow cover: 2
  Zero half: 10

Explored 1166 nodes (6766 simplex iterations) in 4.46 seconds
Thread count was 8 (of 8 available processors)

Solution count 10: 824.413 824.579 824.772 ... 831.622

Optimal solution found (tolerance 1.00e-04)
Best objective 8.244134444902e+02, best bound 8.244134444902e+02, gap 0.0000%
Changed value of parameter lazyConstraints to 1
   Prev: 0  Min: 0  Max: 1  Default: 0
Optimize a model with 100 rows, 4950 columns and 9900 nonzeros
Variable types: 0 continuous, 4950 integer (4950 binary)
Coefficient statistics:
  Matrix range     [1e+00, 1e+00]
  Objective range  [1e+00, 1e+02]
  Bounds range     [1e+00, 1e+00]
  RHS range        [2e+00, 2e+00]
Presolve time: 0.01s
Presolved: 100 rows, 4950 columns, 9900 nonzeros
Variable types: 0 continuous, 4950 integer (4950 binary)

Root relaxation: objective 7.780982e+02, 144 iterations, 0.00 seconds

    Nodes    |    Current Node    |     Objective Bounds      |     Work
 Expl Unexpl |  Obj  Depth IntInf | Incumbent    BestBd   Gap | It/Node Time

     0     0  778.09821    0   22          -  778.09821      -     -    0s
     0     0  789.44882    0   14          -  789.44882      -     -    0s
     0     0  790.55756    0   18          -  790.55756      -     -    0s
     0     0  791.44578    0   20          -  791.44578      -     -    0s
     0     0  791.44578    0   20          -  791.44578      -     -    0s
     0     2  795.09059    0   18          -  795.09059      -     -    0s
* 1086   934             116     888.7649162  800.84134  9.89%   4.5    1s
* 1087   933             117     888.4256874  800.84134  9.86%   4.5    1s
H 1103   626                     856.6079728  800.84134  6.51%   4.6    1s
H 1105   589                     856.4644407  810.63094  5.35%   4.6    1s
H 1108   561                     832.0980677  819.59955  1.50%   4.5    2s
H 1115   537                     831.6215875  822.11559  1.14%   4.8    2s
H 1118   512                     831.0552575  822.94006  0.98%   4.8    2s
H 1123   490                     830.9896202  823.78469  0.87%   4.8    2s
H 1127   467                     827.7584465  823.87555  0.47%   4.8    3s
H 1137   451                     827.1306931  823.89902  0.39%   5.1    3s
H 1137   428                     826.0172898  823.89902  0.26%   5.1    3s
H 1137   406                     825.8514526  823.89902  0.24%   5.1    3s
H 1148   394                     824.7724717  823.98714  0.10%   5.4    3s
H 1148   374                     824.5792817  823.98714  0.07%   5.4    3s
H 1161   364                     824.4134445  824.11751  0.04%   5.6    3s

Cutting planes:
  Gomory: 10
  Clique: 9
  Flow cover: 2
  Zero half: 10

Explored 1166 nodes (6766 simplex iterations) in 3.58 seconds
Thread count was 8 (of 8 available processors)

Solution count 10: 824.413 824.579 824.772 ... 831.622

Optimal solution found (tolerance 1.00e-04)
Best objective 8.244134444902e+02, best bound 8.244134444902e+02, gap 0.0000%
Changed value of parameter lazyConstraints to 1
   Prev: 0  Min: 0  Max: 1  Default: 0
Optimize a model with 100 rows, 4950 columns and 9900 nonzeros
Variable types: 0 continuous, 4950 integer (4950 binary)
Coefficient statistics:
  Matrix range     [1e+00, 1e+00]
  Objective range  [1e+00, 1e+02]
  Bounds range     [1e+00, 1e+00]
  RHS range        [2e+00, 2e+00]

Gurobi 8.1.1 (win64, Python) logging started 08/21/20 23:37:59


--------------------------------------------
Warning: your license will expire in 6 days
--------------------------------------------

Academic license - for non-commercial use only
Changed value of parameter lazyConstraints to 1
   Prev: 0  Min: 0  Max: 1  Default: 0
Optimize a model with 100 rows, 4950 columns and 9900 nonzeros
Variable types: 0 continuous, 4950 integer (4950 binary)
Coefficient statistics:
  Matrix range     [1e+00, 1e+00]
  Objective range  [1e+00, 1e+02]
  Bounds range     [1e+00, 1e+00]
  RHS range        [2e+00, 2e+00]

Gurobi 8.1.1 (win64, Python) logging started 08/21/20 23:52:16


--------------------------------------------
Warning: your license will expire in 6 days
--------------------------------------------

Academic license - for non-commercial use only

Gurobi 8.1.1 (win64, Python) logging started 08/22/20 12:44:57


--------------------------------------------
Warning: your license will expire in 5 days
--------------------------------------------

Academic license - for non-commercial use only
Warning for adding constraints: zero or small (< 1e-13) coefficients, ignored
Warning for adding constraints: zero or small (< 1e-13) coefficients, ignored
Warning for adding constraints: zero or small (< 1e-13) coefficients, ignored
Warning for adding constraints: zero or small (< 1e-13) coefficients, ignored
Warning for adding constraints: zero or small (< 1e-13) coefficients, ignored
Warning for adding constraints: zero or small (< 1e-13) coefficients, ignored
Warning for adding constraints: zero or small (< 1e-13) coefficients, ignored
Warning for adding constraints: zero or small (< 1e-13) coefficients, ignored
Warning for adding constraints: zero or small (< 1e-13) coefficients, ignored
Warning for adding constraints: zero or small (< 1e-13) coefficients, ignored
Warning for adding constraints: zero or small (< 1e-13) coefficients, ignored
Warning for adding constraints: zero or small (< 1e-13) coefficients, ignored
Changed value of parameter PoolSolutions to 1024
   Prev: 10  Min: 1  Max: 2000000000  Default: 10
Changed value of parameter PoolGap to 0.1
   Prev: 1e+100  Min: 0.0  Max: 1e+100  Default: 1e+100
Changed value of parameter PoolSearchMode to 2
   Prev: 0  Min: 0  Max: 2  Default: 0
Optimize a model with 1 rows, 10 columns and 10 nonzeros
Variable types: 0 continuous, 10 integer (10 binary)
Coefficient statistics:
  Matrix range     [1e+00, 2e+01]
  Objective range  [1e+00, 3e+01]
  Bounds range     [1e+00, 1e+00]
  RHS range        [3e+01, 3e+01]
Found heuristic solution: objective 65.0000000
Presolve time: 0.00s
Presolved: 1 rows, 10 columns, 10 nonzeros
Variable types: 0 continuous, 10 integer (10 binary)

Root relaxation: objective 6.587500e+01, 1 iterations, 0.00 seconds

    Nodes    |    Current Node    |     Objective Bounds      |     Work
 Expl Unexpl |  Obj  Depth IntInf | Incumbent    BestBd   Gap | It/Node Time

     0     0   65.87500    0    1   65.00000   65.87500  1.35%     -    0s
Optimal solution found at node 0 - now completing solution pool...
     0     0   65.00000    0    1   65.00000   65.00000  0.00%     -    0s
     0     0   65.00000    0    1   65.00000   65.00000  0.00%     -    0s
     0     2   65.00000    0    1   65.00000   65.00000  0.00%     -    0s

Cutting planes:
  Cover: 1

Explored 72 nodes (46 simplex iterations) in 0.03 seconds
Thread count was 8 (of 8 available processors)

Solution count 21: 65 65 64 ... 59
No other solutions better than -1e+100

Optimal solution found (tolerance 1.00e-04)
Best objective 6.500000000000e+01, best bound 6.500000000000e+01, gap 0.0000%
Changed value of parameter PoolSolutions to 1024
   Prev: 10  Min: 1  Max: 2000000000  Default: 10
Changed value of parameter PoolGap to 0.1
   Prev: 1e+100  Min: 0.0  Max: 1e+100  Default: 1e+100
Changed value of parameter PoolSearchMode to 2
   Prev: 0  Min: 0  Max: 2  Default: 0
Optimize a model with 1 rows, 10 columns and 10 nonzeros
Variable types: 0 continuous, 10 integer (10 binary)
Coefficient statistics:
  Matrix range     [1e+00, 2e+01]
  Objective range  [1e+00, 3e+01]
  Bounds range     [1e+00, 1e+00]
  RHS range        [3e+01, 3e+01]
Found heuristic solution: objective 65.0000000
Presolve time: 0.00s
Presolved: 1 rows, 10 columns, 10 nonzeros
Variable types: 0 continuous, 10 integer (10 binary)

Root relaxation: objective 6.587500e+01, 1 iterations, 0.00 seconds

    Nodes    |    Current Node    |     Objective Bounds      |     Work
 Expl Unexpl |  Obj  Depth IntInf | Incumbent    BestBd   Gap | It/Node Time

     0     0   65.87500    0    1   65.00000   65.87500  1.35%     -    0s
Optimal solution found at node 0 - now completing solution pool...
     0     0   65.00000    0    1   65.00000   65.00000  0.00%     -    0s
     0     0   65.00000    0    1   65.00000   65.00000  0.00%     -    0s
     0     2   65.00000    0    1   65.00000   65.00000  0.00%     -    0s

Cutting planes:
  Cover: 1

Explored 72 nodes (46 simplex iterations) in 0.03 seconds
Thread count was 8 (of 8 available processors)

Solution count 21: 65 65 64 ... 59
No other solutions better than -1e+100

Optimal solution found (tolerance 1.00e-04)
Best objective 6.500000000000e+01, best bound 6.500000000000e+01, gap 0.0000%
Changed value of parameter PoolSolutions to 1024
   Prev: 10  Min: 1  Max: 2000000000  Default: 10
Changed value of parameter PoolGap to 0.1
   Prev: 1e+100  Min: 0.0  Max: 1e+100  Default: 1e+100
Changed value of parameter PoolSearchMode to 2
   Prev: 0  Min: 0  Max: 2  Default: 0
Optimize a model with 1 rows, 10 columns and 10 nonzeros
Variable types: 0 continuous, 10 integer (10 binary)
Coefficient statistics:
  Matrix range     [1e+00, 2e+01]
  Objective range  [1e+00, 3e+01]
  Bounds range     [1e+00, 1e+00]
  RHS range        [3e+01, 3e+01]
Found heuristic solution: objective 65.0000000
Presolve time: 0.00s
Presolved: 1 rows, 10 columns, 10 nonzeros
Variable types: 0 continuous, 10 integer (10 binary)

Root relaxation: objective 6.587500e+01, 1 iterations, 0.00 seconds

    Nodes    |    Current Node    |     Objective Bounds      |     Work
 Expl Unexpl |  Obj  Depth IntInf | Incumbent    BestBd   Gap | It/Node Time

     0     0   65.87500    0    1   65.00000   65.87500  1.35%     -    0s
Optimal solution found at node 0 - now completing solution pool...
     0     0   65.00000    0    1   65.00000   65.00000  0.00%     -    0s
     0     0   65.00000    0    1   65.00000   65.00000  0.00%     -    0s
     0     2   65.00000    0    1   65.00000   65.00000  0.00%     -    0s

Cutting planes:
  Cover: 1

Explored 72 nodes (46 simplex iterations) in 0.03 seconds
Thread count was 8 (of 8 available processors)

Solution count 21: 65 65 64 ... 59
No other solutions better than -1e+100

Optimal solution found (tolerance 1.00e-04)
Best objective 6.500000000000e+01, best bound 6.500000000000e+01, gap 0.0000%
Changed value of parameter PoolSolutions to 1024
   Prev: 10  Min: 1  Max: 2000000000  Default: 10
Changed value of parameter PoolGap to 0.1
   Prev: 1e+100  Min: 0.0  Max: 1e+100  Default: 1e+100
Changed value of parameter PoolSearchMode to 2
   Prev: 0  Min: 0  Max: 2  Default: 0
Optimize a model with 1 rows, 10 columns and 10 nonzeros
Variable types: 0 continuous, 10 integer (10 binary)
Coefficient statistics:
  Matrix range     [1e+00, 2e+01]
  Objective range  [1e+00, 3e+01]
  Bounds range     [1e+00, 1e+00]
  RHS range        [3e+01, 3e+01]
Found heuristic solution: objective 65.0000000
Presolve time: 0.00s
Presolved: 1 rows, 10 columns, 10 nonzeros
Variable types: 0 continuous, 10 integer (10 binary)

Root relaxation: objective 6.587500e+01, 1 iterations, 0.00 seconds

    Nodes    |    Current Node    |     Objective Bounds      |     Work
 Expl Unexpl |  Obj  Depth IntInf | Incumbent    BestBd   Gap | It/Node Time

     0     0   65.87500    0    1   65.00000   65.87500  1.35%     -    0s
Optimal solution found at node 0 - now completing solution pool...
     0     0   65.00000    0    1   65.00000   65.00000  0.00%     -    0s
     0     0   65.00000    0    1   65.00000   65.00000  0.00%     -    0s
     0     2   65.00000    0    1   65.00000   65.00000  0.00%     -    0s

Cutting planes:
  Cover: 1

Explored 72 nodes (46 simplex iterations) in 0.03 seconds
Thread count was 8 (of 8 available processors)

Solution count 21: 65 65 64 ... 59
No other solutions better than -1e+100

Optimal solution found (tolerance 1.00e-04)
Best objective 6.500000000000e+01, best bound 6.500000000000e+01, gap 0.0000%
Changed value of parameter PoolSolutions to 1024
   Prev: 10  Min: 1  Max: 2000000000  Default: 10
Changed value of parameter PoolGap to 0.1
   Prev: 1e+100  Min: 0.0  Max: 1e+100  Default: 1e+100
Changed value of parameter PoolSearchMode to 2
   Prev: 0  Min: 0  Max: 2  Default: 0
Optimize a model with 1 rows, 10 columns and 10 nonzeros
Variable types: 0 continuous, 10 integer (10 binary)
Coefficient statistics:
  Matrix range     [1e+00, 2e+01]
  Objective range  [1e+00, 3e+01]
  Bounds range     [1e+00, 1e+00]
  RHS range        [3e+01, 3e+01]
Found heuristic solution: objective 65.0000000
Presolve time: 0.00s
Presolved: 1 rows, 10 columns, 10 nonzeros
Variable types: 0 continuous, 10 integer (10 binary)

Root relaxation: objective 6.587500e+01, 1 iterations, 0.00 seconds

    Nodes    |    Current Node    |     Objective Bounds      |     Work
 Expl Unexpl |  Obj  Depth IntInf | Incumbent    BestBd   Gap | It/Node Time

     0     0   65.87500    0    1   65.00000   65.87500  1.35%     -    0s
Optimal solution found at node 0 - now completing solution pool...
     0     0   65.00000    0    1   65.00000   65.00000  0.00%     -    0s
     0     0   65.00000    0    1   65.00000   65.00000  0.00%     -    0s
     0     2   65.00000    0    1   65.00000   65.00000  0.00%     -    0s

Cutting planes:
  Cover: 1

Explored 72 nodes (46 simplex iterations) in 0.02 seconds
Thread count was 8 (of 8 available processors)

Solution count 21: 65 65 64 ... 59
No other solutions better than -1e+100

Optimal solution found (tolerance 1.00e-04)
Best objective 6.500000000000e+01, best bound 6.500000000000e+01, gap 0.0000%
Changed value of parameter PoolSolutions to 1024
   Prev: 10  Min: 1  Max: 2000000000  Default: 10
Changed value of parameter PoolGap to 0.1
   Prev: 1e+100  Min: 0.0  Max: 1e+100  Default: 1e+100
Changed value of parameter PoolSearchMode to 2
   Prev: 0  Min: 0  Max: 2  Default: 0
Optimize a model with 1 rows, 10 columns and 10 nonzeros
Variable types: 0 continuous, 10 integer (10 binary)
Coefficient statistics:
  Matrix range     [1e+00, 2e+01]
  Objective range  [1e+00, 3e+01]
  Bounds range     [1e+00, 1e+00]
  RHS range        [3e+01, 3e+01]
Found heuristic solution: objective 65.0000000
Presolve time: 0.00s
Presolved: 1 rows, 10 columns, 10 nonzeros
Variable types: 0 continuous, 10 integer (10 binary)

Root relaxation: objective 6.587500e+01, 1 iterations, 0.00 seconds

    Nodes    |    Current Node    |     Objective Bounds      |     Work
 Expl Unexpl |  Obj  Depth IntInf | Incumbent    BestBd   Gap | It/Node Time

     0     0   65.87500    0    1   65.00000   65.87500  1.35%     -    0s
Optimal solution found at node 0 - now completing solution pool...
     0     0   65.00000    0    1   65.00000   65.00000  0.00%     -    0s
     0     0   65.00000    0    1   65.00000   65.00000  0.00%     -    0s
     0     2   65.00000    0    1   65.00000   65.00000  0.00%     -    0s

Cutting planes:
  Cover: 1

Explored 72 nodes (46 simplex iterations) in 0.03 seconds
Thread count was 8 (of 8 available processors)

Solution count 21: 65 65 64 ... 59
No other solutions better than -1e+100

Optimal solution found (tolerance 1.00e-04)
Best objective 6.500000000000e+01, best bound 6.500000000000e+01, gap 0.0000%
Warning for adding constraints: zero or small (< 1e-13) coefficients, ignored

Gurobi 8.1.1 (win64, Python) logging started 08/31/20 16:21:09

Academic license - for non-commercial use only

Gurobi 8.1.1 (win64, Python) logging started 09/01/20 21:13:31

Academic license - for non-commercial use only

Gurobi 8.1.1 (win64, Python) logging started 09/01/20 21:14:49

Academic license - for non-commercial use only

Gurobi 8.1.1 (win64, Python) logging started 09/01/20 21:19:34

Academic license - for non-commercial use only
Warning for adding constraints: zero or small (< 1e-13) coefficients, ignored
Warning for adding constraints: zero or small (< 1e-13) coefficients, ignored
Warning for adding constraints: zero or small (< 1e-13) coefficients, ignored
Warning for adding constraints: zero or small (< 1e-13) coefficients, ignored
